NAME : traveling-santa-2018-prime-paths.30701.tour
COMMENT : Length = 30701
COMMENT : Found by LKH [Keld Helsgaun] Sun Jun 12 19:59:48 2022
TYPE : TOUR
DIMENSION : 100
TOUR_SECTION
1
6
61
20
28
18
36
73
22
97
95
86
54
52
62
32
29
25
76
100
39
49
57
4
87
89
82
56
35
60
14
91
79
38
85
48
33
5
51
30
53
7
16
93
2
55
78
21
84
3
75
26
11
92
63
37
47
80
23
43
46
42
96
90
13
81
83
12
45
9
98
19
68
58
94
70
10
8
44
88
72
40
41
99
15
31
64
66
24
50
67
34
27
74
65
17
69
59
71
77
-1
EOF
